(set-logic ALL)
(set-option :produce-models true)
(declare-sort BoundSet 0)
(declare-sort UnboundSet 0)
(set-option :finite-model-find true)
(declare-fun IsSmall (BoundSet) Bool)
(declare-fun HasShortBrownHair (BoundSet) Bool)
(declare-fun IsPushing (BoundSet) Bool)
(declare-fun IsOnBeach (BoundSet) Bool)
(assert (not (=> (and (exists ((c BoundSet)) (exists ((a BoundSet)) (exists ((b BoundSet)) (and (IsSmall a) (and (HasShortBrownHair b) (IsPushing c)))))) (forall ((f BoundSet)) (forall ((g BoundSet)) (=> (IsOnBeach f) (IsSmall g))))) (exists ((d BoundSet)) (IsOnBeach d)))))
(check-sat)
(get-model)